50
6477

871 517
240 474
212 334
907 554
680 31
135 622
543 639
855 802
46 673
317 53
669 55
553 233
147 834
447 24
545 374
902 200
252 207
670 368
479 905
811 886
460 870
271 994
581 435
819 765
273 552
66 71
582 88
113 635
815 267
155 836
167 545
709 252
845 355
423 546
275 954
373 333
766 778
139 674
870 851
256 299
877 269
179 219
474 286
1 251
306 581
834 580
857 477
88 538
455 109
442 425
